
Gurobi 6.5.2 (linux64) logging started Mon Aug 29 10:57:51 2016

Optimize a model with 41 rows, 115 columns and 231 nonzeros
Coefficient statistics:
  Matrix range    [1e+00, 2e+00]
  Objective range [2e+00, 1e+02]
  Bounds range    [1e+00, 1e+00]
  RHS range       [1e+00, 1e+00]
Found heuristic solution: objective 977
Presolve removed 21 rows and 20 columns
Presolve time: 0.00s
Presolved: 20 rows, 95 columns, 190 nonzeros
Variable types: 0 continuous, 95 integer (95 binary)

Root relaxation: objective 4.460000e+02, 22 iterations, 0.00 seconds

    Nodes    |    Current Node    |     Objective Bounds      |     Work
 Expl Unexpl |  Obj  Depth IntInf | Incumbent    BestBd   Gap | It/Node Time

     0     0  446.00000    0    6  977.00000  446.00000  54.4%     -    0s
H    0     0                     490.0000000  446.00000  8.98%     -    0s
H    0     0                     469.0000000  446.00000  4.90%     -    0s
H    0     0                     466.0000000  446.00000  4.29%     -    0s
     0     0  456.50000    0    8  466.00000  456.50000  2.04%     -    0s
     0     0  456.50000    0    5  466.00000  456.50000  2.04%     -    0s
H    0     0                     460.0000000  456.50000  0.76%     -    0s

Cutting planes:
  Gomory: 1

Explored 0 nodes (42 simplex iterations) in 0.00 seconds
Thread count was 8 (of 8 available processors)

Optimal solution found (tolerance 1.00e-04)
Best objective 4.600000000000e+02, best bound 4.600000000000e+02, gap 0.0%
